n_res = 4;
rc = [ 14, 13, 14, 12 ];
n_tasks = 30;
d = [ 6, 7, 7, 4, 10, 1, 1, 6, 2, 9, 4, 4, 6, 6, 8, 3, 2, 8, 9, 8, 6, 8, 4, 4, 1, 1, 6, 4, 8, 8 ];
rr = [| 14, 14, 14, 14, 14, 14, 14, 14, 14, 14, 14, 14, 14, 14, 14, 14, 14, 14, 14, 14, 14, 14, 14, 14, 14, 14, 14, 14, 14, 14
      | 13, 13, 13, 13, 13, 13, 13, 13, 13, 13, 13, 13, 13, 13, 13, 13, 13, 13, 13, 13, 13, 13, 13, 13, 13, 13, 13, 13, 13, 13
      | 14, 14, 14, 14, 14, 14, 14, 14, 14, 14, 14, 14, 14, 14, 14, 14, 14, 14, 14, 14, 14, 14, 14, 14, 14, 14, 14, 14, 14, 14
      | 12, 12, 12, 12, 12, 12, 12, 12, 12, 12, 12, 12, 12, 12, 12, 12, 12, 12, 12, 12, 12, 12, 12, 12, 12, 12, 12, 12, 12, 12|];
suc = [ { 16, 18 },
       { 7, 10, 17 },
       { 4, 5, 27 },
       { 6, 20 },
       { 8 },
       { 11, 29 },
       { 27 },
       { 9, 25 },
       { 19, 24 },
       { 26 },
       { 12, 15, 16 },
       { 13 },
       { 14, 18, 23 },
       { 22, 26 },
       { 19 },
       { 21 },
       { 30 },
       { 24 },
       { 21 },
       { 24 },
       { 28 },
       { 25 },
       { 25, 30 },
       { 28 },
       { 28 },
       { 30 },
       { 29 },
       {  },
       {  },
       {  } ];
